(declare-fun b39 () (_ FloatingPoint 8 24))
(declare-fun b46 () (_ FloatingPoint 8 24))
(declare-fun b44 () (_ FloatingPoint 11 53))
(declare-fun b55 () (_ FloatingPoint 11 53))
(declare-fun b106 () (_ FloatingPoint 11 53))
(declare-fun b189 () (_ FloatingPoint 8 24))
(declare-fun b116 () (_ FloatingPoint 8 24))
(declare-fun b174 () (_ FloatingPoint 8 24))
(declare-fun b179 () (_ FloatingPoint 8 24))
(declare-fun b41 () (_ FloatingPoint 8 24))
(assert (let ((.def_79 (fp.leq b174 b116)))
(let ((.def_80 (not .def_79)))
(let ((.def_11 (fp.div RNE b39 b41)))
(let ((.def_12 ((_ to_fp 11 53) RNE .def_11)))
(let ((.def_14 (fp.mul RNE .def_12 b55)))
(let ((.def_15 (fp.mul RNE .def_11 .def_11)))
(let ((.def_16 (fp.neg .def_15)))
(let ((.def_17 (fp.add RNE b39 .def_16)))
(let ((.def_18 ((_ to_fp 11 53) RNE .def_17)))
(let ((.def_19 (fp.div RNE .def_18 .def_14)))
(let ((.def_20 ((_ to_fp 8 24) RNE .def_19)))
(let ((.def_21 (fp.add RNE .def_11 .def_20)))
(let ((.def_22 (fp.mul RNE .def_21 .def_21)))
(let ((.def_23 (fp.neg .def_22)))
(let ((.def_24 (fp.add RNE b39 .def_23)))
(let ((.def_25 ((_ to_fp 11 53) RNE .def_24)))
(let ((.def_26 ((_ to_fp 8 24) RNE .def_25)))
(let ((.def_75 (fp.neg .def_26)))
(let ((.def_76 (= b189 .def_75)))
(let ((.def_72 (fp.leq b46 .def_26)))
(let ((.def_73 (not .def_72)))
(let ((.def_67 ((_ to_fp 11 53) RNE b189)))
(let ((.def_69 (fp.leq .def_67 b44)))
(let ((.def_70 (not .def_69)))
(let ((.def_30 ((_ to_fp 11 53) RNE .def_21)))
(let ((.def_31 (fp.mul RNE b55 .def_30)))
(let ((.def_32 (fp.div RNE .def_25 .def_31)))
(let ((.def_33 ((_ to_fp 8 24) RNE .def_32)))
(let ((.def_34 (fp.add RNE .def_21 .def_33)))
(let ((.def_35 (fp.mul RNE .def_34 .def_34)))
(let ((.def_36 (fp.neg .def_35)))
(let ((.def_37 (fp.add RNE b39 .def_36)))
(let ((.def_38 ((_ to_fp 11 53) RNE .def_37)))
(let ((.def_39 ((_ to_fp 8 24) RNE .def_38)))
(let ((.def_63 (fp.neg .def_39)))
(let ((.def_64 (= b179 .def_63)))
(let ((.def_60 (fp.leq b46 .def_39)))
(let ((.def_61 (not .def_60)))
(let ((.def_44 ((_ to_fp 8 24) RNE b106)))
(let ((.def_56 (fp.neg .def_44)))
(let ((.def_57 (= b174 .def_56)))
(let ((.def_53 (fp.leq b46 .def_44)))
(let ((.def_54 (not .def_53)))
(let ((.def_51 (fp.leq b46 b39)))
(let ((.def_49 (fp.eq b39 b46)))
(let ((.def_50 (not .def_49)))
(let ((.def_52 (and .def_50 .def_51)))
(let ((.def_55 (and .def_52 .def_54)))
(let ((.def_58 (and .def_55 .def_57)))
(let ((.def_46 (= .def_44 b174)))
(let ((.def_47 (not .def_46)))
(let ((.def_59 (and .def_47 .def_58)))
(let ((.def_62 (and .def_59 .def_61)))
(let ((.def_65 (and .def_62 .def_64)))
(let ((.def_41 (= .def_39 b179)))
(let ((.def_42 (not .def_41)))
(let ((.def_66 (and .def_42 .def_65)))
(let ((.def_71 (and .def_66 .def_70)))
(let ((.def_74 (and .def_71 .def_73)))
(let ((.def_77 (and .def_74 .def_76)))
(let ((.def_81 (and .def_77 .def_80)))
(let ((.def_28 (= .def_26 b189)))
(let ((.def_29 (not .def_28)))
(let ((.def_82 (and .def_29 .def_81)))
.def_82)))))))))))))))))))))))))))))))))))))))))))))))))))))))))))))))))
(check-sat)
